TCS_Benchmarks/redos_fix/snort1_output_distinct_2093_2092_1_0.txt
((.|\n|\r)*)([\n\r\s]*)
((.|\n|\r)*)([mM][vV][iI][eE][wW][oO][wW][nN][eE][rR])([\n\r\s]*)